my_model
NAME          
ROWS
 N  OBJ
 E  c1
 E  c2
 E  c3
 E  c4
 E  c5
 E  c6
 E  c7
 E  c8
 E  c9
 E  c10
 E  c11
 E  c12
 E  c13
 E  c14
 E  c15
 E  c16
 E  c17
 E  c18
 E  c19
 E  c20
 E  c21
 E  c22
 E  c23
 E  c24
 L  c25
 L  c26
 L  c27
 L  c28
 L  c29
 L  c30
 L  c31
 L  c32
 L  c33
 L  c34
 L  c35
 L  c36
 L  c37
 L  c38
 L  c39
 L  c40
 L  c41
 L  c42
 L  c43
 L  c44
 L  c45
 L  c46
 L  c47
 L  c48
 L  c49
 L  c50
 L  c51
 L  c52
 L  c53
 L  c54
 L  c55
 L  c56
COLUMNS
