my_model.mps
NAME          
ROWS
 N  OBJ
 E  c1
 E  c2
 E  c3
 E  c4
 E  c5
 E  c6
 E  c7
 E  c8
 E  c9
 E  c10
 E  c11
 E  c12
 L  c13
 L  c14
 L  c15
 L  c16
 L  c17
 L  c18
 L  c19
 L  c20
 L  c21
 L  c22
 L  c23
 L  c24
 L  c25
 L  c26
 L  c27
 L  c28
 L  c29
 L  c30
 L  c31
 L  c32
 L  c33
 L  c34
 L  c35
 L  c36
 L  c37
 L  c38
 L  c39
 L  c40
 L  c41
 L  c42
 L  c43
 L  c44
COLUMNS
    MARKER    'MARKER'                 'INTORG'
     y[1,4]   c41      1
    MARKER    'MARKER'                 'INTEND'
     x[4,2]   c4       -1
     x[4,2]   c8       0
     x[4,2]   c12      0
     x[4,2]   c20      1
    MARKER    'MARKER'                 'INTORG'
     y[4,4]   c44      1
    MARKER    'MARKER'                 'INTEND'
     x[2,3]   c2       0
     x[2,3]   c6       -1
     x[2,3]   c10      0
     x[2,3]   c22      1
     x[3,2]   c3       -1
     x[3,2]   c7       0
     x[3,2]   c11      0
     x[3,2]   c19      1
    MARKER    'MARKER'                 'INTORG'
     y[1,2]   c33      1
    MARKER    'MARKER'                 'INTEND'
    MARKER    'MARKER'                 'INTORG'
     y[2,4]   c42      1
    MARKER    'MARKER'                 'INTEND'
     x[2,1]   c2       1
     x[2,1]   c6       1
     x[2,1]   c10      1
     x[2,1]   c14      1
     x[1,2]   c1       -1
     x[1,2]   c5       0
     x[1,2]   c9       0
     x[1,2]   c17      1
     x[2,2]   c2       -1
     x[2,2]   c6       0
     x[2,2]   c10      0
     x[2,2]   c18      1
    MARKER    'MARKER'                 'INTORG'
     y[3,1]   c31      1
    MARKER    'MARKER'                 'INTEND'
     x[2,4]   c2       0
     x[2,4]   c6       0
     x[2,4]   c10      -1
     x[2,4]   c26      1
     x[4,4]   c4       0
     x[4,4]   c8       0
     x[4,4]   c12      -1
     x[4,4]   c28      1
    MARKER    'MARKER'                 'INTORG'
     y[2,1]   c30      1
    MARKER    'MARKER'                 'INTEND'
     x[4,3]   c4       0
     x[4,3]   c8       -1
     x[4,3]   c12      0
     x[4,3]   c24      1
     x[3,4]   c3       0
     x[3,4]   c7       0
     x[3,4]   c11      -1
     x[3,4]   c27      1
    MARKER    'MARKER'                 'INTORG'
     y[1,1]   c29      1
    MARKER    'MARKER'                 'INTEND'
     x[4,1]   c4       1
     x[4,1]   c8       1
     x[4,1]   c12      1
     x[4,1]   c16      1
    MARKER    'MARKER'                 'INTORG'
     y[4,2]   c36      1
    MARKER    'MARKER'                 'INTEND'
    MARKER    'MARKER'                 'INTORG'
     y[4,3]   c40      1
    MARKER    'MARKER'                 'INTEND'
    MARKER    'MARKER'                 'INTORG'
     y[2,3]   c38      1
    MARKER    'MARKER'                 'INTEND'
    MARKER    'MARKER'                 'INTORG'
     y[3,2]   c35      1
    MARKER    'MARKER'                 'INTEND'
    MARKER    'MARKER'                 'INTORG'
     y[3,3]   c39      1
    MARKER    'MARKER'                 'INTEND'
    MARKER    'MARKER'                 'INTORG'
     y[3,4]   c43      1
    MARKER    'MARKER'                 'INTEND'
     x[1,4]   c1       0
     x[1,4]   c5       0
     x[1,4]   c9       -1
     x[1,4]   c25      1
     x[1,3]   c1       0
     x[1,3]   c5       -1
     x[1,3]   c9       0
     x[1,3]   c21      1
     x[3,1]   c3       1
     x[3,1]   c7       1
     x[3,1]   c11      1
     x[3,1]   c15      1
    MARKER    'MARKER'                 'INTORG'
     y[2,2]   c34      1
    MARKER    'MARKER'                 'INTEND'
    MARKER    'MARKER'                 'INTORG'
     y[1,3]   c37      1
    MARKER    'MARKER'                 'INTEND'
    MARKER    'MARKER'                 'INTORG'
     y[4,1]   c32      1
    MARKER    'MARKER'                 'INTEND'
     x[3,3]   c3       0
     x[3,3]   c7       -1
     x[3,3]   c11      0
     x[3,3]   c23      1
     x[1,1]   c1       1
     x[1,1]   c5       1
     x[1,1]   c9       1
     x[1,1]   c13      1
RHS
    rhs       c1        0
    rhs       c2        0
    rhs       c3        0
    rhs       c4        0
    rhs       c5        0
    rhs       c6        0
    rhs       c7        0
    rhs       c8        0
    rhs       c9        0
    rhs       c10       0
    rhs       c11       0
    rhs       c12       0
    rhs       c13       50
    rhs       c14       68
    rhs       c15       75
    rhs       c16       66
    rhs       c17       50
    rhs       c18       68
    rhs       c19       75
    rhs       c20       66
    rhs       c21       50
    rhs       c22       68
    rhs       c23       75
    rhs       c24       66
    rhs       c25       50
    rhs       c26       68
    rhs       c27       75
    rhs       c28       66
    rhs       c29       92
    rhs       c30       50
    rhs       c31       69
    rhs       c32       81
    rhs       c33       92
    rhs       c34       50
    rhs       c35       69
    rhs       c36       81
    rhs       c37       92
    rhs       c38       50
    rhs       c39       69
    rhs       c40       81
    rhs       c41       92
    rhs       c42       50
    rhs       c43       69
    rhs       c44       81
RANGES
    rhs       c13       50
    rhs       c14       68
    rhs       c15       75
    rhs       c16       66
    rhs       c17       50
    rhs       c18       68
    rhs       c19       75
    rhs       c20       66
    rhs       c21       50
    rhs       c22       68
    rhs       c23       75
    rhs       c24       66
    rhs       c25       50
    rhs       c26       68
    rhs       c27       75
    rhs       c28       66
    rhs       c29       92
    rhs       c30       50
    rhs       c31       69
    rhs       c32       81
    rhs       c33       92
    rhs       c34       50
    rhs       c35       69
    rhs       c36       81
    rhs       c37       92
    rhs       c38       50
    rhs       c39       69
    rhs       c40       81
    rhs       c41       92
    rhs       c42       50
    rhs       c43       69
    rhs       c44       81
BOUNDS
 FR bounds    x[4,2]
 FR bounds    x[4,4]
 FR bounds    y[1,2]
 FR bounds    y[3,3]
 FR bounds    y[2,3]
 FR bounds    y[3,1]
 FR bounds    x[3,1]
 FR bounds    x[4,1]
 FR bounds    y[2,4]
 FR bounds    y[1,3]
 FR bounds    x[1,4]
 FR bounds    y[4,2]
 FR bounds    x[4,3]
 FR bounds    y[3,4]
 FR bounds    x[1,2]
 FR bounds    y[4,4]
 FR bounds    x[2,1]
 FR bounds    x[3,2]
 FR bounds    y[3,2]
 FR bounds    x[1,3]
 FR bounds    x[1,1]
 FR bounds    x[2,2]
 FR bounds    y[2,2]
 FR bounds    x[2,4]
 FR bounds    y[1,4]
 FR bounds    x[3,4]
 FR bounds    y[2,1]
 FR bounds    x[2,3]
 FR bounds    y[4,1]
 FR bounds    x[3,3]
 FR bounds    y[4,3]
 FR bounds    y[1,1]
ENDATA
